p cnf 120 817
33 93 2 62 32 92 0
33 93 2 62 7 67 0
33 93 32 92 7 67 0
2 62 32 92 7 67 0
-33 -2 -32 0
-93 -2 -32 0
-33 -2 -92 0
-93 -2 -92 0
-33 -62 -32 0
-93 -62 -32 0
-33 -62 -92 0
-93 -62 -92 0
-33 -2 -7 0
-93 -2 -7 0
-33 -2 -67 0
-93 -2 -67 0
-33 -62 -7 0
-93 -62 -7 0
-33 -62 -67 0
-93 -62 -67 0
-33 -32 -7 0
-93 -32 -7 0
-33 -32 -67 0
-93 -32 -67 0
-33 -92 -7 0
-93 -92 -7 0
-33 -92 -67 0
-93 -92 -67 0
-2 -32 -7 0
-62 -32 -7 0
-2 -32 -67 0
-62 -32 -67 0
-2 -92 -7 0
-62 -92 -7 0
-2 -92 -67 0
-62 -92 -67 0
34 94 3 63 33 93 0
34 94 3 63 8 68 0
34 94 33 93 8 68 0
3 63 33 93 8 68 0
-34 -3 -33 0
-94 -3 -33 0
-34 -3 -93 0
-94 -3 -93 0
-34 -63 -33 0
-94 -63 -33 0
-34 -63 -93 0
-94 -63 -93 0
-34 -3 -8 0
-94 -3 -8 0
-34 -3 -68 0
-94 -3 -68 0
-34 -63 -8 0
-94 -63 -8 0
-34 -63 -68 0
-94 -63 -68 0
-34 -33 -8 0
-94 -33 -8 0
-34 -33 -68 0
-94 -33 -68 0
-34 -93 -8 0
-94 -93 -8 0
-34 -93 -68 0
-94 -93 -68 0
-3 -33 -8 0
-63 -33 -8 0
-3 -33 -68 0
-63 -33 -68 0
-3 -93 -8 0
-63 -93 -8 0
-3 -93 -68 0
-63 -93 -68 0
36 96 5 65 0
36 96 35 95 0
36 96 10 70 0
5 65 35 95 0
5 65 10 70 0
35 95 10 70 0
-36 -5 -35 -10 0
-36 -5 -35 -70 0
-36 -5 -95 -10 0
-36 -5 -95 -70 0
-36 -65 -35 -10 0
-36 -65 -35 -70 0
-36 -65 -95 -10 0
-36 -65 -95 -70 0
-96 -5 -35 -10 0
-96 -5 -35 -70 0
-96 -5 -95 -10 0
-96 -5 -95 -70 0
-96 -65 -35 -10 0
-96 -65 -35 -70 0
-96 -65 -95 -10 0
-96 -65 -95 -70 0
39 99 7 67 38 98 0
39 99 7 67 12 72 0
39 99 38 98 12 72 0
7 67 38 98 12 72 0
-39 -7 -38 0
-99 -7 -38 0
-39 -7 -98 0
-99 -7 -98 0
-39 -67 -38 0
-99 -67 -38 0
-39 -67 -98 0
-99 -67 -98 0
-39 -7 -12 0
-99 -7 -12 0
-39 -7 -72 0
-99 -7 -72 0
-39 -67 -12 0
-99 -67 -12 0
-39 -67 -72 0
-99 -67 -72 0
-39 -38 -12 0
-99 -38 -12 0
-39 -38 -72 0
-99 -38 -72 0
-39 -98 -12 0
-99 -98 -12 0
-39 -98 -72 0
-99 -98 -72 0
-7 -38 -12 0
-67 -38 -12 0
-7 -38 -72 0
-67 -38 -72 0
-7 -98 -12 0
-67 -98 -12 0
-7 -98 -72 0
-67 -98 -72 0
44 104 11 71 0
44 104 43 103 0
44 104 16 76 0
11 71 43 103 0
11 71 16 76 0
43 103 16 76 0
-44 -11 -43 -16 0
-44 -11 -43 -76 0
-44 -11 -103 -16 0
-44 -11 -103 -76 0
-44 -71 -43 -16 0
-44 -71 -43 -76 0
-44 -71 -103 -16 0
-44 -71 -103 -76 0
-104 -11 -43 -16 0
-104 -11 -43 -76 0
-104 -11 -103 -16 0
-104 -11 -103 -76 0
-104 -71 -43 -16 0
-104 -71 -43 -76 0
-104 -71 -103 -16 0
-104 -71 -103 -76 0
45 105 12 72 44 104 0
45 105 12 72 17 77 0
45 105 44 104 17 77 0
12 72 44 104 17 77 0
-45 -12 -44 0
-105 -12 -44 0
-45 -12 -104 0
-105 -12 -104 0
-45 -72 -44 0
-105 -72 -44 0
-45 -72 -104 0
-105 -72 -104 0
-45 -12 -17 0
-105 -12 -17 0
-45 -12 -77 0
-105 -12 -77 0
-45 -72 -17 0
-105 -72 -17 0
-45 -72 -77 0
-105 -72 -77 0
-45 -44 -17 0
-105 -44 -17 0
-45 -44 -77 0
-105 -44 -77 0
-45 -104 -17 0
-105 -104 -17 0
-45 -104 -77 0
-105 -104 -77 0
-12 -44 -17 0
-72 -44 -17 0
-12 -44 -77 0
-72 -44 -77 0
-12 -104 -17 0
-72 -104 -17 0
-12 -104 -77 0
-72 -104 -77 0
76 16 81 21 109 49 110 50 0
-50-16 0
-50-76 0
-110-16 0
-110-76 0
-50-49 0
-50-109 0
-110-49 0
-110-109 0
-50-21 0
-50-81 0
-110-21 0
-110-81 0
-16-49 0
-50-16 0
-50-16 0
-50-16 0
-16-21 0
-16-81 0
-76-21 0
-76-81 0
-49-21 0
-49-81 0
-109-21 0
-109-81 0
-79 0
-19 0
-84 0
-24 0
-112 0
-52 0
-113 0
-53 0
54 114 20 80 0
54 114 53 113 0
54 114 25 85 0
20 80 53 113 0
20 80 25 85 0
53 113 25 85 0
-54 -20 -53 -25 0
-54 -20 -53 -85 0
-54 -20 -113 -25 0
-54 -20 -113 -85 0
-54 -80 -53 -25 0
-54 -80 -53 -85 0
-54 -80 -113 -25 0
-54 -80 -113 -85 0
-114 -20 -53 -25 0
-114 -20 -53 -85 0
-114 -20 -113 -25 0
-114 -20 -113 -85 0
-114 -80 -53 -25 0
-114 -80 -53 -85 0
-114 -80 -113 -25 0
-114 -80 -113 -85 0
57 117 22 82 56 116 0
57 117 22 82 27 87 0
57 117 56 116 27 87 0
22 82 56 116 27 87 0
-57 -22 -56 0
-117 -22 -56 0
-57 -22 -116 0
-117 -22 -116 0
-57 -82 -56 0
-117 -82 -56 0
-57 -82 -116 0
-117 -82 -116 0
-57 -22 -27 0
-117 -22 -27 0
-57 -22 -87 0
-117 -22 -87 0
-57 -82 -27 0
-117 -82 -27 0
-57 -82 -87 0
-117 -82 -87 0
-57 -56 -27 0
-117 -56 -27 0
-57 -56 -87 0
-117 -56 -87 0
-57 -116 -27 0
-117 -116 -27 0
-57 -116 -87 0
-117 -116 -87 0
-22 -56 -27 0
-82 -56 -27 0
-22 -56 -87 0
-82 -56 -87 0
-22 -116 -27 0
-82 -116 -27 0
-22 -116 -87 0
-82 -116 -87 0
58 118 23 83 57 117 0
58 118 23 83 28 88 0
58 118 57 117 28 88 0
23 83 57 117 28 88 0
-58 -23 -57 0
-118 -23 -57 0
-58 -23 -117 0
-118 -23 -117 0
-58 -83 -57 0
-118 -83 -57 0
-58 -83 -117 0
-118 -83 -117 0
-58 -23 -28 0
-118 -23 -28 0
-58 -23 -88 0
-118 -23 -88 0
-58 -83 -28 0
-118 -83 -28 0
-58 -83 -88 0
-118 -83 -88 0
-58 -57 -28 0
-118 -57 -28 0
-58 -57 -88 0
-118 -57 -88 0
-58 -117 -28 0
-118 -117 -28 0
-58 -117 -88 0
-118 -117 -88 0
-23 -57 -28 0
-83 -57 -28 0
-23 -57 -88 0
-83 -57 -88 0
-23 -117 -28 0
-83 -117 -28 0
-23 -117 -88 0
-83 -117 -88 0
59 119 24 84 0
59 119 58 118 0
59 119 29 89 0
24 84 58 118 0
24 84 29 89 0
58 118 29 89 0
-59 -24 -58 -29 0
-59 -24 -58 -89 0
-59 -24 -118 -29 0
-59 -24 -118 -89 0
-59 -84 -58 -29 0
-59 -84 -58 -89 0
-59 -84 -118 -29 0
-59 -84 -118 -89 0
-119 -24 -58 -29 0
-119 -24 -58 -89 0
-119 -24 -118 -29 0
-119 -24 -118 -89 0
-119 -84 -58 -29 0
-119 -84 -58 -89 0
-119 -84 -118 -29 0
-119 -84 -118 -89 0
-1 -31 0
-61 -91 0
-61 -1 0
-91 -31 0
-1 -2 0
-1 -32 0
-2 -32 0
-62 -92 0
-62 -61 0
-92 -61 0
-62 -2 0
-92 -32 0
-1 -61 0
-2 -3 0
-2 -33 0
-3 -33 0
-63 -93 0
-63 -62 0
-93 -62 0
-63 -3 0
-93 -33 0
-2 -62 0
-3 -4 0
-3 -34 0
-4 -34 0
-64 -94 0
-64 -63 0
-94 -63 0
-64 -4 0
-94 -34 0
-3 -63 0
-4 -5 0
-4 -35 0
-5 -35 0
-65 -95 0
-65 -64 0
-95 -64 0
-65 -5 0
-95 -35 0
-4 -64 0
-5 -36 0
-96 -65 0
-96 -36 0
-5 -65 0
-31 -6 0
-31 -37 0
-6 -37 0
-66 -97 0
-66 -91 0
-97 -91 0
-31 -91 0
-66 -6 0
-97 -37 0
-32 -6 0
-32 -7 0
-32 -38 0
-6 -7 0
-6 -38 0
-7 -38 0
-67 -98 0
-67 -92 0
-67 -66 0
-98 -92 0
-98 -66 0
-92 -66 0
-32 -92 0
-67 -7 0
-98 -38 0
-6 -66 0
-32 67 98 66 0
-7 98 92 66 0
-38 67 92 66 0
-6 67 98 92 0
-33 -7 0
-33 -8 0
-33 -39 0
-7 -8 0
-7 -39 0
-8 -39 0
-68 -99 0
-68 -93 0
-68 -67 0
-99 -93 0
-99 -67 0
-93 -67 0
-33 -93 0
-68 -8 0
-99 -39 0
-7 -67 0
-33 68 99 67 0
-8 99 93 67 0
-39 68 93 67 0
-7 68 99 93 0
-34 -8 0
-34 -9 0
-34 -40 0
-8 -9 0
-8 -40 0
-9 -40 0
-69 -100 0
-69 -94 0
-69 -68 0
-100 -94 0
-100 -68 0
-94 -68 0
-34 -94 0
-69 -9 0
-100 -40 0
-8 -68 0
-34 69 100 68 0
-9 100 94 68 0
-40 69 94 68 0
-8 69 100 94 0
-35 -9 0
-35 -10 0
-35 -41 0
-9 -10 0
-9 -41 0
-10 -41 0
-70 -101 0
-70 -95 0
-70 -69 0
-101 -95 0
-101 -69 0
-95 -69 0
-35 -95 0
-70 -10 0
-101 -41 0
-9 -69 0
-35 70 101 69 0
-10 101 95 69 0
-41 70 95 69 0
-9 70 101 95 0
-36 -10 0
-36 -42 0
-10 -42 0
-102 -96 0
-102 -70 0
-96 -70 0
-36 -96 0
-102 -42 0
-10 -70 0
-37 -11 0
-37 -43 0
-11 -43 0
-71 -103 0
-71 -97 0
-103 -97 0
-37 -97 0
-71 -11 0
-103 -43 0
-38 -11 0
-38 -12 0
-38 -44 0
-11 -12 0
-11 -44 0
-12 -44 0
-72 -104 0
-72 -98 0
-72 -71 0
-104 -98 0
-104 -71 0
-98 -71 0
-38 -98 0
-72 -12 0
-104 -44 0
-11 -71 0
-38 72 104 71 0
-12 104 98 71 0
-44 72 98 71 0
-11 72 104 98 0
-39 -12 0
-39 -13 0
-39 -45 0
-12 -13 0
-12 -45 0
-13 -45 0
-73 -105 0
-73 -99 0
-73 -72 0
-105 -99 0
-105 -72 0
-99 -72 0
-39 -99 0
-73 -13 0
-105 -45 0
-12 -72 0
-39 73 105 72 0
-13 105 99 72 0
-45 73 99 72 0
-12 73 105 99 0
-40 -13 0
-40 -14 0
-40 -46 0
-13 -14 0
-13 -46 0
-14 -46 0
-74 -106 0
-74 -100 0
-74 -73 0
-106 -100 0
-106 -73 0
-100 -73 0
-40 -100 0
-74 -14 0
-106 -46 0
-13 -73 0
-40 74 106 73 0
-14 106 100 73 0
-46 74 100 73 0
-13 74 106 100 0
-41 -14 0
-41 -15 0
-41 -47 0
-14 -15 0
-14 -47 0
-15 -47 0
-75 -107 0
-75 -101 0
-75 -74 0
-107 -101 0
-107 -74 0
-101 -74 0
-41 -101 0
-75 -15 0
-107 -47 0
-14 -74 0
-41 75 107 74 0
-15 107 101 74 0
-47 75 101 74 0
-14 75 107 101 0
-42 -15 0
-42 -48 0
-15 -48 0
-108 -102 0
-108 -75 0
-102 -75 0
-42 -102 0
-108 -48 0
-15 -75 0
-43 -16 0
-43 -49 0
-16 -49 0
-76 -109 0
-76 -103 0
-109 -103 0
-43 -103 0
-76 -16 0
-109 -49 0
-44 -16 0
-44 -17 0
-44 -50 0
-16 -17 0
-16 -50 0
-17 -50 0
-77 -110 0
-77 -104 0
-77 -76 0
-110 -104 0
-110 -76 0
-104 -76 0
-44 -104 0
-77 -17 0
-110 -50 0
-16 -76 0
-44 77 110 76 0
-17 110 104 76 0
-50 77 104 76 0
-16 77 110 104 0
-45 -17 0
-45 -18 0
-45 -51 0
-17 -18 0
-17 -51 0
-18 -51 0
-78 -111 0
-78 -105 0
-78 -77 0
-111 -105 0
-111 -77 0
-105 -77 0
-45 -105 0
-78 -18 0
-111 -51 0
-17 -77 0
-45 78 111 77 0
-18 111 105 77 0
-51 78 105 77 0
-17 78 111 105 0
-46 -18 0
-46 -19 0
-46 -52 0
-18 -19 0
-18 -52 0
-19 -52 0
-79 -112 0
-79 -106 0
-79 -78 0
-112 -106 0
-112 -78 0
-106 -78 0
-46 -106 0
-79 -19 0
-112 -52 0
-18 -78 0
-46 79 112 78 0
-19 112 106 78 0
-52 79 106 78 0
-18 79 112 106 0
-47 -19 0
-47 -20 0
-47 -53 0
-19 -20 0
-19 -53 0
-20 -53 0
-80 -113 0
-80 -107 0
-80 -79 0
-113 -107 0
-113 -79 0
-107 -79 0
-47 -107 0
-80 -20 0
-113 -53 0
-19 -79 0
-47 80 113 79 0
-20 113 107 79 0
-53 80 107 79 0
-19 80 113 107 0
-48 -20 0
-48 -54 0
-20 -54 0
-114 -108 0
-114 -80 0
-108 -80 0
-48 -108 0
-114 -54 0
-20 -80 0
-49 -21 0
-49 -55 0
-21 -55 0
-81 -115 0
-81 -109 0
-115 -109 0
-49 -109 0
-81 -21 0
-115 -55 0
-50 -21 0
-50 -22 0
-50 -56 0
-21 -22 0
-21 -56 0
-22 -56 0
-82 -116 0
-82 -110 0
-82 -81 0
-116 -110 0
-116 -81 0
-110 -81 0
-50 -110 0
-82 -22 0
-116 -56 0
-21 -81 0
-50 82 116 81 0
-22 116 110 81 0
-56 82 110 81 0
-21 82 116 110 0
-51 -22 0
-51 -23 0
-51 -57 0
-22 -23 0
-22 -57 0
-23 -57 0
-83 -117 0
-83 -111 0
-83 -82 0
-117 -111 0
-117 -82 0
-111 -82 0
-51 -111 0
-83 -23 0
-117 -57 0
-22 -82 0
-51 83 117 82 0
-23 117 111 82 0
-57 83 111 82 0
-22 83 117 111 0
-52 -23 0
-52 -24 0
-52 -58 0
-23 -24 0
-23 -58 0
-24 -58 0
-84 -118 0
-84 -112 0
-84 -83 0
-118 -112 0
-118 -83 0
-112 -83 0
-52 -112 0
-84 -24 0
-118 -58 0
-23 -83 0
-52 84 118 83 0
-24 118 112 83 0
-58 84 112 83 0
-23 84 118 112 0
-53 -24 0
-53 -25 0
-53 -59 0
-24 -25 0
-24 -59 0
-25 -59 0
-85 -119 0
-85 -113 0
-85 -84 0
-119 -113 0
-119 -84 0
-113 -84 0
-53 -113 0
-85 -25 0
-119 -59 0
-24 -84 0
-53 85 119 84 0
-25 119 113 84 0
-59 85 113 84 0
-24 85 119 113 0
-54 -25 0
-54 -60 0
-25 -60 0
-120 -114 0
-120 -85 0
-114 -85 0
-54 -114 0
-120 -60 0
-25 -85 0
-55 -26 0
-86 -115 0
-55 -115 0
-86 -26 0
-56 -26 0
-56 -27 0
-26 -27 0
-87 -116 0
-87 -86 0
-116 -86 0
-56 -116 0
-87 -27 0
-26 -86 0
-57 -27 0
-57 -28 0
-27 -28 0
-88 -117 0
-88 -87 0
-117 -87 0
-57 -117 0
-88 -28 0
-27 -87 0
-58 -28 0
-58 -29 0
-28 -29 0
-89 -118 0
-89 -88 0
-118 -88 0
-58 -118 0
-89 -29 0
-28 -88 0
-59 -29 0
-59 -30 0
-29 -30 0
-90 -119 0
-90 -89 0
-119 -89 0
-59 -119 0
-90 -30 0
-29 -89 0
-60 -30 0
-120 -90 0
-60 -120 0
-30 -90 0
